
  17    4
  10   10   10   10

   0   0   0   0   0   6 2 3 4 5 6 9 
   5  10  10  10  10   3 12 10 7 
   2  10  10  10  10   4 16 13 12 10 
   2  10  10  10  10   4 16 13 12 10 
   4  10  10  10  10   3 13 12 10 
   4  10  10  10  10   2 13 8 
   9  10  10  10  10   3 16 13 11 
   9  10  10  10  10   2 12 11 
   7  10  10  10  10   2 12 11 
  10  10  10  10  10   2 15 11 
   2  10  10  10  10   1 14 
  10  10  10  10  10   1 15 
   7  10  10  10  10   1 14 
   1  10  10  10  10   1 17
   9  10  10  10  10   1 17
   1  10  10  10  10   1 17
   0   0   0   0   0   0 
